[Molden Format]
made by pyscf v[2.14.0]
[Atoms] (AU)
C   1   6     2.63994739601739     0.00000000000000     0.00000000000000
C   2   6     1.31997369800870     2.28626150960564     0.00000000000000
C   3   6    -1.31997369800870     2.28626150960564     0.00000000000000
C   4   6    -2.63994739601739     0.00000000000000     0.00000000000000
C   5   6    -1.31997369800870    -2.28626150960564     0.00000000000000
C   6   6     1.31997369800870    -2.28626150960564     0.00000000000000
H   7   1     4.68085161054766     0.00000000000000     0.00000000000000
H   8   1     2.34042580527383     4.05373640607958     0.00000000000000
H   9   1    -2.34042580527383     4.05373640607958     0.00000000000000
H   10   1    -4.68085161054766     0.00000000000000     0.00000000000000
H   11   1    -2.34042580527383    -4.05373640607957     0.00000000000000
H   12   1     2.34042580527383    -4.05373640607958     0.00000000000000
[GTO]
1 0
 s    3 1.00
             71.616837    0.15432897000916
             13.045096    0.53532814003178
             3.5305122     0.4446345400264
 s    3 1.00
             2.9412494  -0.099967230075964
             0.6834831    0.39951283030359
             0.2222899    0.70011547053201
 p    3 1.00
             2.9412494    0.15591627210511
             0.6834831    0.60768372820466
             0.2222899    0.39195739529202

2 0
 s    3 1.00
             71.616837    0.15432897000916
             13.045096    0.53532814003178
             3.5305122     0.4446345400264
 s    3 1.00
             2.9412494  -0.099967230075964
             0.6834831    0.39951283030359
             0.2222899    0.70011547053201
 p    3 1.00
             2.9412494    0.15591627210511
             0.6834831    0.60768372820466
             0.2222899    0.39195739529202

3 0
 s    3 1.00
             71.616837    0.15432897000916
             13.045096    0.53532814003178
             3.5305122     0.4446345400264
 s    3 1.00
             2.9412494  -0.099967230075964
             0.6834831    0.39951283030359
             0.2222899    0.70011547053201
 p    3 1.00
             2.9412494    0.15591627210511
             0.6834831    0.60768372820466
             0.2222899    0.39195739529202

4 0
 s    3 1.00
             71.616837    0.15432897000916
             13.045096    0.53532814003178
             3.5305122     0.4446345400264
 s    3 1.00
             2.9412494  -0.099967230075964
             0.6834831    0.39951283030359
             0.2222899    0.70011547053201
 p    3 1.00
             2.9412494    0.15591627210511
             0.6834831    0.60768372820466
             0.2222899    0.39195739529202

5 0
 s    3 1.00
             71.616837    0.15432897000916
             13.045096    0.53532814003178
             3.5305122     0.4446345400264
 s    3 1.00
             2.9412494  -0.099967230075964
             0.6834831    0.39951283030359
             0.2222899    0.70011547053201
 p    3 1.00
             2.9412494    0.15591627210511
             0.6834831    0.60768372820466
             0.2222899    0.39195739529202

6 0
 s    3 1.00
             71.616837    0.15432897000916
             13.045096    0.53532814003178
             3.5305122     0.4446345400264
 s    3 1.00
             2.9412494  -0.099967230075964
             0.6834831    0.39951283030359
             0.2222899    0.70011547053201
 p    3 1.00
             2.9412494    0.15591627210511
             0.6834831    0.60768372820466
             0.2222899    0.39195739529202

7 0
 s    3 1.00
            3.42525091    0.15432897070298
            0.62391373    0.53532814243847
             0.1688554    0.44463454202535

8 0
 s    3 1.00
            3.42525091    0.15432897070298
            0.62391373    0.53532814243847
             0.1688554    0.44463454202535

9 0
 s    3 1.00
            3.42525091    0.15432897070298
            0.62391373    0.53532814243847
             0.1688554    0.44463454202535

10 0
 s    3 1.00
            3.42525091    0.15432897070298
            0.62391373    0.53532814243847
             0.1688554    0.44463454202535

11 0
 s    3 1.00
            3.42525091    0.15432897070298
            0.62391373    0.53532814243847
             0.1688554    0.44463454202535

12 0
 s    3 1.00
            3.42525091    0.15432897070298
            0.62391373    0.53532814243847
             0.1688554    0.44463454202535

[5d]
[7f]
[9g]

[MO]
 Sym= A
 Ene=    -11.02903557
 Spin= Alpha
 Occup=    2.00000
   1      0.55700352892227
   2      0.01635872381813
   3    0.00055376230767654
   4    0.00088632399202419
   5    -6.9626404200521e-17
   6      0.16194531483562
   7    0.0047561972918796
   8    -0.0030543858960481
   9    0.0019493607151223
  10    -1.4575458247513e-17
  11     -0.39505821283366
  12    -0.011602526498542
  13    -0.0021709286041231
  14    -0.0017069056470937
  15    1.7976173445114e-17
  16     -0.55700352636624
  17    -0.016358723760511
  18     0.000553762297686
  19    0.00088632399221006
  20    -9.9028065806594e-17
  21     -0.16194531222096
  22    -0.0047561972317101
  23    -0.0030543859009854
  24      0.00194936070666
  25    -9.70042290034e-17
  26      0.39505821540114
  27     0.011602526556657
  28    -0.002170928598948
  29    -0.0017069056555979
  30    2.1510741754087e-16
  31    -0.0037238789226208
  32    -0.0010826946569907
  33    0.0026411842568821
  34    0.0037238789047729
  35    0.0010826946387325
  36    -0.0026411842748106
 Sym= A
 Ene=    -11.02903557
 Spin= Alpha
 Occup=    2.00000
   1      0.13458779624035
   2      0.00395273005211
   3    0.00013380462564189
   4    -0.0036681304341023
   5    -1.2946496828577e-16
   6      0.54967310320886
   7      0.01614343540411
   8    0.0011968413439224
   9    -5.9982231937929e-05
  10    2.5769380539877e-17
  11      0.41508530735204
  12      0.01219070536179
  13    -0.0024594250196969
  14    -0.00094343952900601
  15    -5.4761254135902e-17
  16     -0.13458779558313
  17    -0.0039527300375568
  18    0.00013380462298275
  19    -0.0036681304344164
  20    3.8233418924087e-16
  21     -0.54967310256354
  22    -0.016143435390075
  23    0.0011968413423447
  24    -5.9982234140701e-05
  25    1.3364455866265e-16
  26      -0.4150853066271
  27    -0.012190705344289
  28    -0.0024594250185186
  29    -0.00094343953113914
  30    -3.8065773818761e-16
  31    -0.00089979440280433
  32    -0.0036748709423346
  33    -0.0027750765422134
  34    0.00089979439821504
  35    0.0036748709378298
  36      0.00277507653715
 Sym= A
 Ene=    -11.02900756
 Spin= Alpha
 Occup=    2.00000
   1      0.40541579844582
   2    0.0092161284711886
   3    0.0015579773667282
   4    3.5527301845815e-13
   5    3.8282297342561e-18
   6      0.40541579936548
   7      0.00921612849861
   8    0.00077898869296745
   9    0.0013492479734634
  10    6.6107195274373e-17
  11      0.40541580124404
  12    0.0092161285534179
  13    -0.00077898867525092
  14    0.0013492479859857
  15    1.442089099194e-16
  16      0.40541580224933
  17    0.0092161285836851
  18    -0.0015579773702608
  19    1.2053690596878e-13
  20    -1.0148806377317e-16
  21       0.4054158012768
  22     0.009216128553959
  23    -0.00077898867563849
  24    -0.0013492479859476
  25    1.0944843985029e-16
  26      0.40541579945782
  27    0.0092161285017436
  28    0.00077898869305418
  29    -0.0013492479733717
  30    -4.6544578686813e-17
  31    -0.0028306823139415
  32    -0.0028306823201019
  33    -0.0028306823326504
  34    -0.0028306823393906
  35    -0.0028306823328614
  36    -0.0028306823207277
 Sym= A
 Ene=    -11.02868927
 Spin= Alpha
 Occup=    2.00000
   1      0.56255399060997
   2     0.024488507821106
   3      -0.0018494684675
   4    -0.00072795698064698
   5    -9.2798444064778e-17
   6     -0.18875611618429
   7    -0.0082167324493877
   8    -0.0028798301654047
   9    0.0023792316484853
  10    1.8477616430639e-18
  11     -0.37379787387403
  12    -0.016271775343636
  13    0.0019452266614552
  14    0.0025420984408399
  15    -8.5875574328791e-17
  16      0.56255398952617
  17     0.024488507765642
  18    0.0018494684611848
  19    0.00072795698050182
  20    -5.3184742508359e-17
  21     -0.18875611515501
  22    -0.0082167323955252
  23    0.0028798301685359
  24    -0.0023792316429379
  25    -1.4759136439648e-17
  26     -0.37379787494129
  27    -0.016271775398615
  28    -0.0019452266584686
  29    -0.0025420984464271
  30    -8.5273326008337e-17
  31    -0.0039342668369672
  32    0.0013200811666564
  33    0.0026141856663402
  34    -0.0039342668291371
  35    0.0013200811591915
  36    0.0026141856740596
 Sym= A
 Ene=    -11.02868927
 Spin= Alpha
 Occup=    2.00000
   1     -0.10683390932694
   2    -0.0046505812204874
   3    0.00035123019284223
   4    -0.0038331940395504
   5    -9.9472018399951e-16
   6      0.54060300115084
   7     0.023532960463756
   8    -0.0020025048574652
   9    -0.00089610459249249
  10    6.2384947545073e-16
  11     -0.43376909186471
  12    -0.018882379247201
  13    -0.0029188252324627
  14    -3.8498914473293e-05
  15    3.2557289700065e-16
  16     -0.10683390908452
  17    -0.004650581208419
  18    -0.00035123019153536
  19    0.0038331940392356
  20    -3.1866342975261e-16
  21      0.54060300089767
  22     0.023532960451372
  23    0.0020025048570544
  24    0.00089610459123319
  25    -1.0052190099929e-16
  26     -0.43376909169446
  27    -0.018882379237252
  28    0.0029188252317388
  29    3.8498915647222e-05
  30    -2.6986307643653e-16
  31    0.00074715158641562
  32    -0.0037807508165269
  33    0.0030335992304325
  34    0.00074715158467259
  35    -0.003780750814712
  36     0.003033599229172
 Sym= A
 Ene=    -11.02854917
 Spin= Alpha
 Occup=    2.00000
   1     -0.40473775724306
   2    -0.020910154072869
   3    0.0024192359786963
   4    5.1041724217232e-14
   5      2.8567023946e-16
   6      0.40473775758594
   7     0.020910154088422
   8    -0.0012096179938762
   9    -0.0020951198142404
  10    -4.8980203767794e-17
  11     -0.40473775837506
  12    -0.020910154122212
  13    -0.0012096179872883
  14    0.0020951198208084
  15    -1.6774461276422e-16
  16      0.40473775873972
  17     0.020910154138757
  18    0.0024192359838673
  19    -1.4454191710162e-13
  20    -4.6545243163498e-18
  21     -0.40473775841217
  22    -0.020910154123653
  23    -0.0012096179873665
  24    -0.0020951198208432
  25    9.7176074439721e-18
  26      0.40473775759849
  27     0.020910154089141
  28    -0.0012096179940479
  29    0.0020951198142492
  30    -7.9849018353552e-17
  31    0.0029270159183193
  32    -0.0029270159207145
  33    0.0029270159262354
  34    -0.0029270159287848
  35     0.002927015926491
  36    -0.0029270159208061
 Sym= A
 Ene=    -1.088634357
 Spin= Alpha
 Occup=    2.00000
   1     -0.10466685388121
   2      0.26513150222666
   3     -0.06112153132601
   4    1.9280584405639e-15
   5    2.7019675302072e-17
   6      -0.1046668538812
   7      0.26513150222665
   8    -0.030560765663008
   9    -0.052932798846532
  10    -1.486108545898e-16
  11     -0.10466685388121
  12      0.26513150222667
  13     0.030560765663004
  14    -0.052932798846534
  15    -2.6615143583495e-17
  16     -0.10466685388121
  17      0.26513150222667
  18     0.061121531326014
  19    6.2897990069412e-15
  20    9.5703329445947e-17
  21     -0.10466685388121
  22      0.26513150222667
  23     0.030560765663002
  24     0.052932798846536
  25    -1.075624627836e-17
  26      -0.1046668538812
  27      0.26513150222665
  28    -0.030560765663006
  29     0.052932798846534
  30    7.6185858756364e-17
  31      0.04770641441034
  32     0.047706414410339
  33     0.047706414410344
  34     0.047706414410348
  35     0.047706414410341
  36     0.047706414410338
 Sym= A
 Ene=   -0.9544648523
 Spin= Alpha
 Occup=    2.00000
   1     0.097733457771449
   2     -0.26381157292772
   3     0.017547747340684
   4     0.096573062580894
   5    1.1929759851111e-16
   6     -0.04543559230294
   7       0.1226441317606
   8     -0.11090457023614
   9     0.054610940346355
  10    -5.0635141178379e-16
  11     -0.14316905007439
  12      0.38645570468833
  13    -0.010338147595912
  14    -0.035650968732887
  15    -9.6406216340746e-17
  16    -0.097733457771445
  17      0.26381157292771
  18     0.017547747340683
  19     0.096573062580907
  20    1.9931839330595e-16
  21     0.045435592302952
  22     -0.12264413176064
  23     -0.11090457023614
  24     0.054610940346355
  25    -4.2942602042317e-16
  26      0.14316905007439
  27     -0.38645570468833
  28    -0.010338147595899
  29    -0.035650968732893
  30    7.6000141894211e-16
  31    -0.073409450138298
  32     0.034127533433498
  33      0.10753698357181
  34       0.0734094501383
  35    -0.034127533433509
  36      -0.1075369835718
 Sym= A
 Ene=   -0.9544648523
 Spin= Alpha
 Occup=    2.00000
   1      0.10889094104697
   2      -0.2939289276182
   3     0.019551039784657
   4    -0.086677727668254
   5    1.1424917185205e-16
   6      0.13908512775325
   7     -0.37543198777682
   8    -0.022411082449882
   9     0.041774589908566
  10    -4.9368049193451e-16
  11     0.030194186706286
  12    -0.081503060158644
  13     -0.11267299152914
  14    -0.058791832731667
  15    2.1345549636306e-16
  16     -0.10889094104697
  17      0.29392892761819
  18     0.019551039784653
  19    -0.086677727668262
  20    4.4806368673705e-16
  21     -0.13908512775325
  22      0.37543198777684
  23    -0.022411082449896
  24     0.041774589908565
  25    -4.9551511236897e-16
  26    -0.030194186706278
  27     0.081503060158619
  28     -0.11267299152913
  29    -0.058791832731671
  30    -8.0781515005105e-17
  31    -0.081790047027633
  32     -0.10446947221143
  33    -0.022679425183801
  34     0.081790047027636
  35      0.10446947221144
  36     0.022679425183791
 Sym= A
 Ene=   -0.7675797628
 Spin= Alpha
 Occup=    2.00000
   1     0.064826695972007
   2     -0.19087496954047
   3    -0.048506567831483
   4      0.18869943993995
   5    -4.2582473546439e-16
   6     -0.11396858274398
   7      0.33556776932178
   8     0.026924059042314
   9     0.082924760799757
  10    -2.8114846453761e-16
  11     0.049141886771967
  12      -0.1446927997813
  13      0.19751814468642
  14     0.071578340458794
  15    5.8377603303096e-16
  16     0.064826695972006
  17     -0.19087496954047
  18     0.048506567831484
  19     -0.18869943993996
  20    9.0386035545313e-16
  21     -0.11396858274397
  22      0.33556776932176
  23    -0.026924059042337
  24    -0.082924760799751
  25    -3.638307505529e-16
  26     0.049141886771977
  27     -0.14469279978133
  28     -0.19751814468638
  29     -0.07157834045879
  30    1.5173744485723e-17
  31     -0.10179594931092
  32      0.17896238421665
  33    -0.077166434905824
  34     -0.10179594931092
  35      0.17896238421664
  36    -0.077166434905824
 Sym= A
 Ene=   -0.7675797628
 Spin= Alpha
 Occup=    2.00000
   1     0.094171873482681
   2     -0.27727856885284
   3     -0.07046409354069
   4     -0.12989824637316
   5    2.7133708457241e-16
   6     0.009055628813833
   7    -0.026663288142229
   8     -0.20116010719915
   9      0.10831573758402
  10    -8.4494064953074e-16
  11      -0.1032275022965
  12      0.30394185699502
  13     0.046657005940526
  14      0.11612646614459
  15    -4.2740569890812e-16
  16     0.094171873482681
  17     -0.27727856885283
  18     0.070464093540695
  19      0.12989824637316
  20    2.7105265103616e-16
  21    0.0090556288138256
  22    -0.026663288142206
  23      0.20116010719916
  24     -0.10831573758402
  25    -1.4955340576431e-17
  26      -0.1032275022965
  27      0.30394185699503
  28    -0.046657005940532
  29     -0.11612646614459
  30    6.949990705716e-16
  31     -0.14787604266763
  32    -0.014219856771847
  33      0.16209589943933
  34     -0.14787604266763
  35    -0.014219856771843
  36      0.16209589943933
 Sym= A
 Ene=   -0.6627436611
 Spin= Alpha
 Occup=    2.00000
   1    0.0085746525261123
   2    -0.034760912440559
   3     -0.23457520202164
   4    2.9324498274482e-15
   5    -1.078292701722e-15
   6    0.0085746525261604
   7    -0.034760912440709
   8     -0.11728760101079
   9     -0.20314808404867
  10    -1.7849355581327e-15
  11    0.0085746525261611
  12    -0.034760912440713
  13       0.1172876010108
  14      -0.2031480840487
  15    -1.7858853951233e-15
  16     0.008574652526104
  17    -0.034760912440534
  18      0.23457520202167
  19    7.7642582092211e-15
  20    1.9544255737968e-15
  21    0.0085746525261625
  22    -0.034760912440715
  23      0.11728760101079
  24      0.20314808404868
  25    1.9054656703697e-15
  26    0.0085746525261611
  27    -0.034760912440712
  28     -0.11728760101078
  29      0.20314808404864
  30    1.6505854141035e-16
  31     -0.17552938017864
  32     -0.17552938017872
  33     -0.17552938017874
  34     -0.17552938017865
  35     -0.17552938017873
  36      -0.1755293801787
 Sym= A
 Ene=   -0.5969946635
 Spin= Alpha
 Occup=    2.00000
   1     0.065434074083626
   2     -0.21880223594269
   3     -0.16383927853605
   4    -1.1497470040252e-14
   5    -9.582644341332e-17
   6    -0.065434074083627
   7      0.21880223594269
   8      0.08191963926801
   9      0.14188897734995
  10    5.692132251271e-16
  11     0.065434074083625
  12     -0.21880223594269
  13     0.081919639268043
  14     -0.14188897734993
  15    4.5438875281231e-16
  16    -0.065434074083627
  17      0.21880223594269
  18     -0.16383927853608
  19    -3.7123435045287e-15
  20    8.7787831225299e-17
  21     0.065434074083627
  22     -0.21880223594269
  23     0.081919639268024
  24      0.14188897734993
  25    -1.5377187132394e-16
  26    -0.065434074083628
  27       0.2188022359427
  28      0.08191963926803
  29     -0.14188897734994
  30    6.3067246696868e-17
  31     -0.23146249927631
  32      0.23146249927632
  33     -0.23146249927632
  34      0.23146249927634
  35     -0.23146249927631
  36      0.23146249927632
 Sym= A
 Ene=   -0.5524102729
 Spin= Alpha
 Occup=    2.00000
   1    2.500094982235e-15
   2    -1.0672946927983e-14
   3    -1.3174375739982e-14
   4      0.33211908904463
   5    1.7364809062572e-14
   6    -3.1266327559221e-15
   7    1.3659890420919e-14
   8      0.28762356819444
   9     -0.16605954452228
  10    1.6864892308917e-14
  11    7.2306814929653e-15
  12    -2.5211382009724e-14
  13     -0.28762356819444
  14      -0.1660595445223
  15    1.6793494591554e-14
  16    1.6914254127478e-15
  17    -1.0348382762178e-14
  18    -2.4121163892808e-15
  19      0.33211908904464
  20    1.7322245317042e-14
  21    -5.5494576842499e-15
  22    2.6471429584372e-14
  23      0.28762356819442
  24      -0.1660595445223
  25    1.710822352714e-14
  26    -2.4442933378986e-15
  27    7.4946428025047e-15
  28     -0.28762356819441
  29     -0.16605954452228
  30    1.7752487067013e-14
  31    -1.5742358082876e-14
  32    5.1571433408417e-14
  33    1.5091319653975e-14
  34    -8.9634577217273e-16
  35    -1.7614735740728e-14
  36    -3.1002827349482e-14
 Sym= A
 Ene=   -0.5347522921
 Spin= Alpha
 Occup=    2.00000
   1     0.026044418714212
   2    -0.083077769710617
   3      0.35631167738426
   4    -0.026662322750074
   5    -1.4984200220018e-15
   6     0.019088624319185
   7     -0.06088983412082
   8     0.067771582936167
   9       0.2624220952081
  10    -2.107494846597e-15
  11    -0.0069557943950201
  12     0.022187935589763
  13    -0.038312819629784
  14     -0.13200316557341
  15    -2.6200597024348e-16
  16    -0.026044418714213
  17     0.083077769710614
  18      0.35631167738427
  19    -0.026662322750064
  20    1.0156384715346e-15
  21    -0.019088624319186
  22     0.060889834120824
  23     0.067771582936139
  24      0.26242209520807
  25    1.9778595165545e-15
  26      0.00695579439502
  27    -0.022187935589763
  28    -0.038312819629754
  29      -0.1320031655734
  30    1.098926097861e-15
  31      0.27279851175722
  32      0.19994104544658
  33     -0.07285746631066
  34     -0.27279851175721
  35     -0.19994104544655
  36     0.072857466310672
 Sym= A
 Ene=   -0.5347522921
 Spin= Alpha
 Occup=    2.00000
   1    -0.0070048926227489
   2     0.022344551535059
   3    -0.095833394006488
   4    -0.099131383590528
   5    -1.7047159539574e-15
   6     0.019052681921928
   7      -0.0607751832916
   8      0.19325102395164
   9       0.1894087108576
  10    -1.3009472289151e-15
  11     0.026057574544681
  12    -0.083119734826668
  13     -0.20117423682979
  14      0.29549311342356
  15    9.7286136626679e-16
  16    0.0070048926227492
  17    -0.022344551535058
  18    -0.095833394006455
  19    -0.099131383590561
  20    -2.316910674706e-15
  21    -0.019052681921931
  22     0.060775183291614
  23      0.19325102395164
  24      0.18940871085764
  25    -2.6159803896614e-15
  26    -0.026057574544677
  27     0.083119734826655
  28     -0.20117423682978
  29      0.29549311342355
  30    -9.9355635072675e-16
  31    -0.073371738623714
  32      0.19956457198449
  33      0.27293631060819
  34     0.073371738623677
  35     -0.19956457198452
  36     -0.27293631060819
 Sym= A
 Ene=   -0.4549714507
 Spin= Alpha
 Occup=    2.00000
   1    -1.6929728671204e-16
   2    8.5632004586327e-16
   3    -2.1949644947661e-15
   4    -2.8834261767798e-14
   5      0.33452179614942
   6    7.6023626055326e-16
   7    -1.6057084754466e-15
   8    -9.5054234725148e-15
   9    2.0555059477749e-14
  10      0.33452179614944
  11    -5.3998956247788e-16
  12    9.3120203448365e-16
  13    7.2797541733354e-15
  14    -6.5318969010936e-15
  15      0.33452179614946
  16    1.6945444120707e-17
  17    -1.9098716556675e-16
  18    1.2352118056518e-15
  19    2.2750720978958e-15
  20      0.33452179614945
  21    5.3890724819666e-16
  22    -8.4631532569607e-16
  23    -1.1506446834218e-14
  24    -6.7299664465842e-15
  25      0.33452179614945
  26    -6.7696861283935e-16
  27    1.3946647804637e-15
  28    1.326331064192e-14
  29    2.1184816879225e-14
  30      0.33452179614943
  31    -2.6236443041237e-15
  32    1.3501907665944e-14
  33    -1.0032890453995e-14
  34    -1.5187203181011e-15
  35    1.2375627261754e-14
  36    -1.2924109777774e-14
 Sym= A
 Ene=   -0.4336417244
 Spin= Alpha
 Occup=    2.00000
   1    0.0069805810974943
   2    -0.016410182516894
   3      0.23862159150203
   4     -0.17787028021898
   5    -8.788918543657e-15
   6    0.00029796846408754
   7    -0.00070047418856605
   8     -0.28481331514059
   9      0.17619841197263
  10    -7.7829706819959e-15
  11     -0.00727854956158
  12     0.017110656705453
  13      0.26026957294819
  14      -0.1370311399802
  15    -5.4320437004489e-15
  16    0.0069805810974961
  17      -0.0164101825169
  18     -0.23862159150203
  19      0.17787028021898
  20    -4.0538396921442e-15
  21    0.0002979684640795
  22    -0.00070047418852972
  23      0.28481331514061
  24     -0.17619841197262
  25    -5.5627079048914e-15
  26    -0.0072785495615766
  27     0.017110656705441
  28      -0.2602695729482
  29      0.13703113998022
  30    -7.5977294665761e-15
  31      0.25124997031798
  32     0.010724689923532
  33     -0.26197466024148
  34      0.25124997031796
  35     0.010724689923523
  36     -0.26197466024152
 Sym= A
 Ene=   -0.4336417244
 Spin= Alpha
 Occup=    2.00000
   1    -0.0043743047216377
   2     0.010283261216233
   3     -0.14952960789558
   4     -0.28384806155855
   5    -1.6672356284057e-14
   6    0.0082325129244237
   7    -0.019353265548471
   8       0.1512014761419
   9      0.23765633791996
  10    -1.2085832569863e-14
  11    -0.0038582082027874
  12     0.009070004332247
  13     -0.19036874813433
  14     -0.26220008011233
  15    -1.0372051952514e-14
  16    -0.0043743047216336
  17     0.010283261216211
  18      0.14952960789556
  19      0.28384806155851
  20    -1.2410296521707e-14
  21    0.0082325129244258
  22    -0.019353265548479
  23     -0.15120147614193
  24     -0.23765633791994
  25    -1.4492155732203e-14
  26    -0.0038582082027896
  27    0.0090700043322545
  28      0.19036874813434
  29      0.26220008011236
  30    -1.8097038850746e-14
  31     -0.15744304322563
  32      0.29631037860826
  33     -0.13886733538263
  34      -0.1574430432256
  35      0.29631037860826
  36     -0.13886733538265
 Sym= A
 Ene=   -0.2792582975
 Spin= Alpha
 Occup=    2.00000
   1    3.6444923396421e-16
   2    -1.5649634386321e-15
   3    1.2349741489386e-15
   4    1.1269071395866e-15
   5    -0.016377716758053
   6    -1.8321036899738e-16
   7    7.0685867711356e-16
   8    -1.0369731854238e-15
   9    -7.9998501159332e-16
  10       0.4521424531547
  11    -1.4574388747836e-16
  12     7.53953178897e-16
  13    9.561411948457e-16
  14    -1.3148781597042e-15
  15      0.46852016991278
  16    1.791566049698e-16
  17    -1.105344440741e-15
  18    1.0672785058064e-15
  19    -7.6998646249469e-16
  20     0.016377716758048
  21    -2.6587818379776e-16
  22    1.0295188337813e-15
  23    1.1870095831246e-15
  24    1.2856519630847e-15
  25     -0.45214245315472
  26    2.033793751194e-16
  27    -3.9819841659866e-16
  28    -1.0788532799465e-15
  29    -5.2696827229719e-16
  30     -0.46852016991277
  31    1.5583217254041e-15
  32    -2.4821055047894e-15
  33    1.4495682864361e-16
  34    -5.164074050355e-16
  35    -2.978318712525e-15
  36    1.0928698950884e-15
 Sym= A
 Ene=   -0.2792582975
 Spin= Alpha
 Occup=    2.00000
   1    2.3080166828424e-16
   2    -5.7885821187065e-16
   3    1.8454488253795e-16
   4    -1.7235360742076e-15
   5      0.53154481326084
   6    1.3627615317522e-16
   7    -6.2568895723133e-16
   8    -8.7340107972798e-16
   9    1.3242689030624e-15
  10       0.2799559253989
  11    -1.6410162512185e-16
  12    8.0370954056006e-16
  13    6.6096067117782e-16
  14    -1.8385485815787e-15
  15     -0.25158888786195
  16    -7.8236777465628e-17
  17    3.0138326357086e-16
  18    8.3184533666808e-16
  19    9.8373090321405e-16
  20     -0.53154481326083
  21    4.1575829595659e-17
  22    -7.0429165458105e-16
  23    1.2924100528983e-15
  24    -6.4453332883141e-17
  25     -0.27995592539887
  26    8.5535154062285e-17
  27    -5.6710258218811e-16
  28    -1.4333759732299e-15
  29    1.4774096622663e-15
  30      0.25158888786198
  31    1.1981675995091e-15
  32    1.9668150734173e-15
  33    -3.2086764421672e-15
  34    -1.2516490446816e-15
  35    1.4120847832694e-15
  36    -1.3686825755696e-15
 Sym= A
 Ene=     0.267925242
 Spin= Alpha
 Occup=    0.00000
   1    -3.5761215719309e-16
   2    1.2284263337492e-15
   3    -3.9428745395246e-16
   4    8.2978530226143e-16
   5     -0.35175548547983
   6    1.9125668589292e-17
   7    -1.6100678897787e-15
   8    -1.2266082541629e-15
   9    -7.627062766727e-16
  10     -0.30546508106945
  11    6.5231283315023e-17
  12    -1.1308456094833e-15
  13    1.5261871979338e-15
  14    2.1167934509303e-16
  15      0.65722056654926
  16    -1.6497838817665e-16
  17    1.3398322474626e-15
  18    2.7336167722968e-16
  19    1.1647576391155e-15
  20     -0.35175548547984
  21    4.5829747531745e-16
  22    -1.8309712281792e-15
  23    4.7213214030284e-16
  24    1.305304359572e-15
  25     -0.30546508106942
  26    2.5260156362322e-16
  27    -1.0822288296581e-15
  28    3.1777658830298e-17
  29    6.0239740811368e-16
  30      0.65722056654926
  31    -4.6734472035428e-16
  32    3.7512100833932e-16
  33    -8.4167901373836e-16
  34    -7.4170413290071e-16
  35    3.1270151035893e-15
  36    1.4761880619691e-15
 Sym= A
 Ene=     0.267925242
 Spin= Alpha
 Occup=    0.00000
   1    -6.5578006378822e-17
   2    1.3017090115435e-15
   3    -1.5203762878212e-15
   4    3.3478492886258e-15
   5     -0.55580681779765
   6    5.0509362507478e-16
   7    -3.6176511720151e-15
   8    -2.2788245528754e-15
   9    1.6715434921774e-15
  10      0.58253259524488
  11    -2.3419754799984e-16
  12    1.5406957488559e-15
  13    -8.9973597876196e-17
  14    1.4183951847712e-15
  15    -0.026725777447237
  16    -1.4072560135455e-16
  17    6.0729765700897e-16
  18    -6.7252955246929e-16
  19    -2.7688033254976e-16
  20     -0.55580681779765
  21    3.9370294210603e-16
  22    -3.4431658586165e-15
  23    -1.5723144157881e-15
  24    1.771748204564e-15
  25      0.58253259524488
  26    -2.621201165868e-16
  27    2.2883669441049e-15
  28    -3.0599176841788e-15
  29    1.8135894836764e-16
  30    -0.026725777447253
  31    8.0304904507229e-16
  32    9.5713340767194e-16
  33    -1.9772293299159e-15
  34    -7.2975284010294e-16
  35    2.2034442507771e-15
  36    5.0510656476236e-16
 Sym= A
 Ene=     0.501878328
 Spin= Alpha
 Occup=    0.00000
   1    -1.4971701187746e-17
   2    6.5452509088143e-18
   3    9.439812977369e-16
   4    -1.2041592777924e-16
   5      0.52166263931459
   6    -3.4633433600428e-16
   7    1.6103082302038e-15
   8    2.3742749410092e-16
   9    6.7961365267652e-16
  10     -0.52166263931458
  11    -2.0526433742741e-16
  12    1.5172705239443e-15
  13    -1.0556948631864e-15
  14    1.0512440899169e-15
  15      0.52166263931457
  16    -1.3679612558068e-16
  17    9.0944694005715e-16
  18    -1.8928679503065e-15
  19    5.0142817350381e-16
  20     -0.52166263931458
  21    -3.5879344887499e-16
  22    2.0693368870298e-15
  23    -1.0529550571829e-15
  24    -7.6646209460007e-16
  25      0.52166263931458
  26    -2.0474672651625e-16
  27    1.8267551822292e-15
  28    6.8243964919721e-16
  29    -4.1877061128759e-16
  30     -0.52166263931458
  31    -1.3216214035122e-15
  32    -1.7155252249098e-15
  33    -2.8687322195294e-15
  34    -2.6000204601138e-15
  35    -2.2608484699223e-15
  36    -2.139857230476e-15
 Sym= A
 Ene=    0.5841307401
 Spin= Alpha
 Occup=    0.00000
   1     0.052724606359003
   2     -0.33641446555485
   3     -0.31716792441007
   4    -4.8207179611683e-14
   5    3.8575524488557e-15
   6     0.052724606359014
   7     -0.33641446555493
   8     -0.15858396220505
   9     -0.27467547980474
  10    -2.7753708687556e-15
  11     0.052724606359027
  12       -0.336414465555
  13      0.15858396220509
  14     -0.27467547980477
  15    1.8481037168702e-15
  16     0.052724606359008
  17     -0.33641446555488
  18      0.31716792441015
  19    -2.462252390474e-14
  20    -1.3630719295414e-15
  21     0.052724606359012
  22     -0.33641446555491
  23       0.1585839622051
  24      0.27467547980466
  25    2.6423361543465e-15
  26     0.052724606359017
  27     -0.33641446555494
  28     -0.15858396220501
  29      0.27467547980463
  30    -3.5880812550385e-15
  31      0.51356589774302
  32      0.51356589774311
  33      0.51356589774319
  34      0.51356589774313
  35      0.51356589774305
  36        0.513565897743
 Sym= A
 Ene=    0.6526381227
 Spin= Alpha
 Occup=    0.00000
   1     0.029404830603562
   2     -0.19445725148948
   3     -0.55584847202694
   4    0.0085039696654778
   5    2.6277262995908e-16
   6     0.014047587948691
   7    -0.092898183274292
   8     -0.38448596045376
   9    -0.084642845922069
  10    -7.1898547304957e-16
  11    -0.015357242654854
  12      0.10155906821508
  13     -0.38949970765993
  14      0.11033485015038
  15    -3.1377424045169e-16
  16    -0.029404830603536
  17      0.19445725148931
  18     -0.55584847202693
  19    0.0085039696655284
  20    1.9886913022513e-15
  21    -0.014047587948707
  22     0.092898183274394
  23     -0.38448596045371
  24    -0.084642845921961
  25     -1.3484919409e-15
  26      0.01535724265487
  27     -0.10155906821519
  28     -0.38949970765988
  29      0.11033485015046
  30    4.6991514757717e-16
  31      0.65375643150376
  32      0.31231946520601
  33      -0.3414369662977
  34     -0.65375643150366
  35     -0.31231946520595
  36       0.3414369662978
 Sym= A
 Ene=    0.6526381227
 Spin= Alpha
 Occup=    0.00000
   1    -0.00075612949714885
   2     0.005000364251984
   3     0.014293346263716
   4      0.33070762140011
   5    1.7420752863301e-15
   6    -0.025843395045222
   7      0.17090510186589
   8      0.10744016185126
   9      0.50207013297328
  10    -4.2651901555749e-16
  11    -0.025087265548069
  12      0.16590473761388
  13    -0.087537534221135
  14      0.49705638576715
  15    -1.0742276557026e-15
  16    0.00075612949714022
  17    -0.0050003642519262
  18      0.01429334626382
  19       0.3307076214001
  20    2.0800475795231e-15
  21     0.025843395045245
  22     -0.17090510186603
  23      0.10744016185136
  24      0.50207013297334
  25    -5.3867098520542e-16
  26     0.025087265548089
  27     -0.16590473761401
  28    -0.087537534221176
  29      0.49705638576714
  30    -1.1354908813277e-15
  31    -0.016810997093409
  32     -0.57457517611634
  33      -0.5577641790229
  34     0.016810997093485
  35      0.57457517611651
  36      0.55776417902298
 Sym= A
 Ene=    0.7232596708
 Spin= Alpha
 Occup=    0.00000
   1      0.12065786673819
   2      -0.7579764555222
   3    -0.059858616259023
   4    5.014181597008e-14
   5    -1.7727324656027e-17
   6     -0.12065786673814
   7      0.75797645552189
   8     0.029929308129645
   9     0.051839082315612
  10    1.2425981029316e-16
  11      0.12065786673808
  12     -0.75797645552147
  13     0.029929308129394
  14    -0.051839082315823
  15    -1.109258162592e-16
  16     -0.12065786673807
  17      0.75797645552142
  18    -0.059858616259107
  19    -1.1440114547987e-13
  20    1.5990437522738e-16
  21      0.12065786673813
  22     -0.75797645552183
  23     0.029929308129361
  24      0.05183908231583
  25    -3.8413875991006e-17
  26     -0.12065786673819
  27      0.75797645552221
  28     0.029929308129571
  29    -0.051839082315688
  30    -5.4368242366604e-17
  31      0.44904823363183
  32     -0.44904823363167
  33      0.44904823363152
  34     -0.44904823363153
  35      0.44904823363168
  36     -0.44904823363185
 Sym= A
 Ene=    0.7346927262
 Spin= Alpha
 Occup=    0.00000
   1     0.079693276362888
   2     -0.51542016482755
   3     0.025491845418141
   4     -0.37857704528002
   5    -2.0508852791629e-15
   6     -0.16323361223388
   7       1.0557213752874
   8      -0.0312182349799
   9    -0.042267985846494
  10    1.5756964750078e-15
  11     0.083540335870977
  12      -0.5403012104597
  13     -0.33610744781306
  14     -0.16319533088425
  15    3.9659486783407e-17
  16     0.079693276362908
  17     -0.51542016482769
  18    -0.025491845418053
  19      0.37857704527999
  20    -2.4754825820669e-15
  21     -0.16323361223387
  22       1.0557213752873
  23     0.031218234979902
  24     0.042267985846585
  25    1.0904388093021e-15
  26     0.083540335870979
  27     -0.54030121045972
  28      0.33610744781301
  29      0.16319533088422
  30    1.5739896015843e-15
  31      0.22542546442003
  32     -0.46173296576781
  33      0.23630750134765
  34      0.22542546442017
  35      -0.4617329657677
  36      0.23630750134765
 Sym= A
 Ene=    0.7346927262
 Spin= Alpha
 Occup=    0.00000
   1     -0.14247500536727
   2      0.92146406951346
   3     -0.04557411840153
   4     -0.21175675702814
   5    9.9021929166397e-16
   6     0.002221100842528
   7    -0.014365078393094
   8     -0.37527091272497
   9      0.21748314658992
  10    2.0590655881837e-16
  11      0.14025390452479
  12     -0.90709899112065
  13      0.16980759599426
  14      0.14984253620297
  15    -1.4900736149632e-16
  16     -0.14247500536738
  17      0.92146406951413
  18     0.045574118401444
  19       0.2117567570281
  20    -2.2158154542773e-17
  21    0.0022211008426211
  22    -0.014365078393674
  23      0.37527091272502
  24     -0.21748314658994
  25    3.964857636655e-16
  26       0.1402539045247
  27     -0.90709899112005
  28      -0.1698075959942
  29     -0.14984253620305
  30    -1.6104632283284e-15
  31     -0.40301385159416
  32    0.0062827469492774
  33      0.39673110464507
  34     -0.40301385159459
  35    0.0062827469495855
  36      0.39673110464466
 Sym= A
 Ene=     0.886515141
 Spin= Alpha
 Occup=    0.00000
   1     0.024410055013045
   2     -0.17614069486535
   3       0.7847981642977
   4       0.0532828277667
   5    -1.7762955115976e-17
   6    -0.0069259980623532
   7     0.049977360177478
   8     0.071761819352675
   9     -0.29855472214756
  10    4.2775987008672e-16
  11    -0.017484056950627
  12      0.12616333468741
  13      0.14410648110325
  14        -0.56588393075
  15    -3.4214550109264e-16
  16     0.024410055013161
  17     -0.17614069486617
  18     -0.78479816429766
  19     -0.05328282776548
  20    6.0720688118793e-17
  21    -0.0069259980624326
  22     0.049977360178045
  23    -0.071761819353838
  24      0.29855472214829
  25    3.0585690420891e-16
  26    -0.017484056950786
  27      0.12616333468855
  28     -0.14410648110328
  29      0.56588393074976
  30    -8.0865397379007e-17
  31      -0.5494736107387
  32      0.15590514487864
  33      0.39356846586028
  34     -0.54947361073835
  35      0.15590514487847
  36      0.39356846585972
 Sym= A
 Ene=     0.886515141
 Spin= Alpha
 Occup=    0.00000
   1    -0.0060956981413033
   2     0.043985992892065
   3     -0.19598041499003
   4      0.21336961359988
   5    1.0642211275952e-16
   6     0.024187576819815
   7     -0.17453531284032
   8      0.44125230937138
   9      0.64319037005193
  10    -7.0359124538973e-16
  11    -0.018091878678397
  12      0.13054931994743
  13      0.42318634352615
  14     -0.42732206959518
  15    7.7971818774311e-16
  16    -0.0060956981412666
  17     0.043985992891795
  18         0.19598041499
  19     -0.21336961359852
  20    -6.3406043440974e-16
  21     0.024187576819706
  22     -0.17453531283953
  23     -0.44125230937228
  24     -0.64319037005147
  25    8.6904626154976e-17
  26    -0.018091878678553
  27      0.13054931994855
  28      -0.4231863435258
  29      0.42732206959526
  30    1.1317610105858e-15
  31      0.13721498234511
  32     -0.54446559678115
  33      0.40725061443642
  34      0.13721498234518
  35     -0.54446559678148
  36      0.40725061443593
 Sym= A
 Ene=    0.8952739835
 Spin= Alpha
 Occup=    0.00000
   1    -0.038801741786257
   2      0.27806533119906
   3     0.032124422190037
   4      0.76140798393978
   5    8.2633543007048e-16
   6     0.056691096547217
   7     -0.40626600280669
   8     -0.60535338300324
   9      0.29530480194834
  10    -4.3820098780738e-16
  11     0.095492838333503
  12     -0.68433133400596
  13      0.11704271598274
  14    -0.023715580701056
  15    -1.612090080179e-16
  16     0.038801741786219
  17     -0.27806533119879
  18     0.032124422191093
  19      0.76140798394024
  20    3.5568439028328e-16
  21    -0.056691096547244
  22      0.40626600280689
  23     -0.60535338300238
  24      0.29530480194888
  25    -5.333543857115e-16
  26    -0.095492838333437
  27      0.68433133400549
  28      0.11704271598368
  29    -0.023715580702767
  30    -6.1365569067366e-16
  31     -0.12702052870746
  32      0.18558272708835
  33      0.31260325579521
  34      0.12702052870819
  35     -0.18558272708773
  36     -0.31260325579656
 Sym= A
 Ene=    0.8952739835
 Spin= Alpha
 Occup=    0.00000
   1     0.087863435769728
   2     -0.62965666598632
   3    -0.072743180482072
   4      0.33624858540981
   5    -6.6516171721349e-16
   6     0.077535011982803
   7     -0.55563997372299
   8      0.39336000150925
   9     -0.30122921978362
  10    9.033715731674e-16
  11    -0.010328423786883
  12     0.074016692263067
  13      0.71238038415973
  14       0.4211668792025
  15    -2.5194811203377e-16
  16    -0.087863435769699
  17      0.62965666598612
  18     -0.07274318048243
  19      0.33624858541004
  20    -3.5746461164567e-16
  21    -0.077535011982833
  22      0.55563997372319
  23      0.39336000150917
  24     -0.30122921978325
  25    7.3703156379273e-16
  26     0.010328423786885
  27    -0.074016692263076
  28      0.71238038415971
  29      0.42116687920258
  30    -3.5036936589352e-16
  31      0.28762781132448
  32      0.25381691032542
  33    -0.033810900999087
  34     -0.28762781132468
  35     -0.25381691032528
  36     0.033810900999159
 Sym= A
 Ene=     1.082856702
 Spin= Alpha
 Occup=    0.00000
   1    1.471506350982e-14
   2    -1.0662295953572e-13
   3    8.2306407769664e-14
   4      0.75479013720021
   5    2.0548035962723e-16
   6    2.3014479648824e-15
   7    -1.5137021388715e-14
   8     -0.65366743334128
   9          0.3773950686
  10    -4.4669795289473e-16
  11    4.3117406987978e-15
  12    -3.5378155641379e-14
  13     -0.65366743334123
  14     -0.37739506860001
  15    1.2385272803291e-15
  16    -1.3551070734635e-14
  17    1.0009990765591e-13
  18    4.465980869345e-14
  19     -0.75479013720013
  20    -1.1670803131221e-16
  21    -4.0003185738039e-15
  22    2.4613810955515e-14
  23      0.65366743334128
  24     -0.37739506860018
  25    -8.6159759744592e-16
  26    -5.0795167350068e-15
  27    4.1489466044271e-14
  28      0.65366743334132
  29      0.37739506860021
  30    1.7224787213215e-16
  31    -1.9951596217833e-14
  32    5.1345947406386e-14
  33    -1.4984095077666e-14
  34    -6.8373268070431e-15
  35    -6.5597100154911e-14
  36    4.3761161103466e-14
 Sym= A
 Ene=     1.148997052
 Spin= Alpha
 Occup=    0.00000
   1     0.060096802603822
   2     -0.45284717300262
   3      0.67482348189121
   4    -5.4301141116815e-14
   5    -2.8012019082897e-16
   6    -0.060096802603814
   7      0.45284717300257
   8     -0.33741174094552
   9     -0.58441427838809
  10    1.1954920014697e-16
  11     0.060096802603819
  12      -0.4528471730026
  13     -0.33741174094549
  14      0.58441427838805
  15    4.9757343382856e-17
  16    -0.060096802603821
  17      0.45284717300262
  18      0.67482348189113
  19    9.1019442969585e-14
  20    -2.5244673977133e-17
  21     0.060096802603815
  22     -0.45284717300257
  23     -0.33741174094566
  24     -0.58441427838801
  25    -4.4656785352034e-18
  26    -0.060096802603818
  27      0.45284717300259
  28     -0.33741174094566
  29      0.58441427838806
  30    1.8104710630446e-16
  31     -0.28409284722114
  32      0.28409284722115
  33      -0.2840928472211
  34      0.28409284722109
  35     -0.28409284722115
  36      0.28409284722117
